NAME: pr152
COMMENT: Local search tour for pr152 (80803.67659395313)
TYPE: TOUR
DIMENSION: 152
TOUR_SECTION: 1 35 36 34 37 33 46 52 53 72 71 70 69 54 45 80 114 90 99 98 97 79 91 96 115 78 47 51 73 75 48 49 50 76 74 77 92 93 94 95 116 123 124 125 126 152 150 151 127 128 122 129 130 149 148 147 131 132 121 120 133 134 146 145 144 135 136 119 118 137 138 143 142 141 139 140 117 104 111 112 88 103 102 101 113 100 89 81 67 68 56 55 44 66 65 57 43 82 87 83 105 106 107 110 109 108 85 84 86 64 59 58 42 63 62 61 60 41 40 18 17 9 8 10 19 21 20 7 11 22 23 39 6 12 24 25 26 5 13 27 28 38 4 14 29 30 31 3 15 32 2 16 -1
EOF